decision_x1=[0,4];
decision_x2=[0,4];
decision_x3=[0,4];
decision_x4=[0,4];
decision_x5=[0,4];
decision_x6=[0,4];
decision_x7=[0,4];
decision_x8=[0,4];
decision_x9=[0,4];
decision_x10=[0,4];
decision_x11=[0,4];
decision_x12=[0,4];
decision_x13=[0,4];
decision_x14=[0,4];
decision_x15=[0,4];
random_y1=[0,4];
random_y2=[0,4];
random_y3=[0,4];
constraint_x3_x1=[
0,1,4.7|
0,2,5.7|
0,3,7.4|
0,4,8.3|
1,0,8.6|
1,2,1.7|
1,3,0.44|
1,4,4.2|
2,0,7.5|
2,1,3.7|
2,3,0.22|
2,4,2.4|
3,0,7.9|
3,1,1.1|
3,2,0.46|
3,4,1.8|
4,0,6.9|
4,1,2.1|
4,2,1.8|
4,3,0.74|
];
constraint_x3_x2=[
0,1,9.9|
0,2,6.8|
0,3,7.5|
0,4,5.3|
1,0,6.1|
1,2,6.7|
1,3,9.3|
1,4,0.61|
2,0,6.2|
2,1,8.8|
2,3,1.9|
2,4,8|
3,0,9.1|
3,1,7|
3,2,7|
3,4,1.6|
4,0,5.3|
4,1,6.5|
4,2,7.5|
4,3,5.5|
];
constraint_x4_x1=[
0,1,5.2|
0,2,9.1|
0,3,9.3|
0,4,1.4|
1,0,6.6|
1,2,0.33|
1,3,0.73|
1,4,9.6|
2,0,7|
2,1,0.18|
2,3,3.8|
2,4,0.98|
3,0,1.7|
3,1,9.1|
3,2,7|
3,4,9.2|
4,0,9.7|
4,1,4.3|
4,2,5.7|
4,3,6.1|
];
constraint_x4_x3=[
0,1,0.16|
0,2,4.3|
0,3,5.3|
0,4,8.5|
1,0,9.3|
1,2,2.3|
1,3,3.8|
1,4,7|
2,0,1.5|
2,1,0.66|
2,3,3.4|
2,4,3.4|
3,0,0.094|
3,1,6.1|
3,2,5.7|
3,4,6.9|
4,0,1.7|
4,1,8.4|
4,2,3.5|
4,3,7.6|
];
constraint_x5_x2=[
0,1,4.5|
0,2,0.86|
0,3,5.2|
0,4,3|
1,0,1.7|
1,2,2.1|
1,3,4.9|
1,4,9.8|
2,0,2.7|
2,1,3.9|
2,3,1.8|
2,4,4.7|
3,0,4.4|
3,1,7.8|
3,2,1.6|
3,4,0.6|
4,0,7.2|
4,1,2.6|
4,2,1.3|
4,3,6.5|
];
constraint_x5_x3=[
0,1,4.2|
0,2,9.1|
0,3,0.25|
0,4,9.2|
1,0,4.3|
1,2,7.5|
1,3,0.005|
1,4,0.65|
2,0,7.2|
2,1,9.6|
2,3,4.3|
2,4,4.6|
3,0,9.8|
3,1,8.7|
3,2,4.6|
3,4,7.8|
4,0,3.7|
4,1,9.6|
4,2,5.4|
4,3,9.1|
];
constraint_x6_x5=[
0,1,4|
0,2,4.2|
0,3,4.5|
0,4,9.7|
1,0,3|
1,2,6.7|
1,3,1.7|
1,4,3.2|
2,0,5.6|
2,1,1.1|
2,3,3.3|
2,4,9.3|
3,0,9.6|
3,1,9.2|
3,2,8.4|
3,4,5|
4,0,4.3|
4,1,1.7|
4,2,7.4|
4,3,0.68|
];
constraint_x7_x1=[
0,1,6.8|
0,2,5.2|
0,3,9.5|
0,4,4.8|
1,0,5.4|
1,2,5.6|
1,3,9.9|
1,4,9.3|
2,0,4.9|
2,1,1.9|
2,3,0.19|
2,4,5.9|
3,0,6.4|
3,1,0.16|
3,2,6.6|
3,4,9.4|
4,0,3.4|
4,1,2.2|
4,2,9.7|
4,3,2|
];
constraint_x7_x2=[
0,1,6|
0,2,2.7|
0,3,5.9|
0,4,8|
1,0,4|
1,2,7.8|
1,3,4.3|
1,4,4.1|
2,0,9.5|
2,1,7.9|
2,3,5|
2,4,4|
3,0,1.4|
3,1,5.9|
3,2,6.8|
3,4,3|
4,0,8.1|
4,1,6.4|
4,2,4.2|
4,3,6.3|
];
constraint_x7_x3=[
0,1,3.1|
0,2,2|
0,3,3.8|
0,4,7.2|
1,0,3.1|
1,2,4.3|
1,3,10|
1,4,7.5|
2,0,8.5|
2,1,9.1|
2,3,8.7|
2,4,3|
3,0,1.9|
3,1,8.2|
3,2,5.2|
3,4,2.8|
4,0,9.3|
4,1,6.2|
4,2,7.6|
4,3,0.84|
];
constraint_x7_x5=[
0,1,4.5|
0,2,9.8|
0,3,6.2|
0,4,5.2|
1,0,7.1|
1,2,5.4|
1,3,0.78|
1,4,2.5|
2,0,5.1|
2,1,8.9|
2,3,9.6|
2,4,8.6|
3,0,7.9|
3,1,5.2|
3,2,7.4|
3,4,6.2|
4,0,1.2|
4,1,6.5|
4,2,1.5|
4,3,1.7|
];
constraint_x7_x6=[
0,1,7.7|
0,2,1.9|
0,3,0.29|
0,4,8.3|
1,0,4.5|
1,2,4.2|
1,3,6.6|
1,4,9.2|
2,0,1.7|
2,1,3.9|
2,3,7.3|
2,4,1.4|
3,0,8.3|
3,1,7.2|
3,2,1.6|
3,4,3.1|
4,0,3.7|
4,1,4.2|
4,2,6.2|
4,3,4.8|
];
constraint_x8_x3=[
0,1,8.8|
0,2,2.9|
0,3,0.34|
0,4,6.4|
1,0,3.5|
1,2,9|
1,3,5.9|
1,4,0.89|
2,0,5.6|
2,1,3.7|
2,3,6.2|
2,4,1.8|
3,0,5.1|
3,1,5.9|
3,2,8.1|
3,4,1.4|
4,0,1.3|
4,1,0.95|
4,2,7|
4,3,0.83|
];
constraint_x8_x6=[
0,1,3|
0,2,4|
0,3,0.57|
0,4,9|
1,0,7.1|
1,2,3.3|
1,3,4.7|
1,4,1.5|
2,0,0.63|
2,1,5.8|
2,3,5|
2,4,7.2|
3,0,5.5|
3,1,5.3|
3,2,1.5|
3,4,2.3|
4,0,4.5|
4,1,6.8|
4,2,9.3|
4,3,8.7|
];
constraint_x9_x3=[
0,1,3.9|
0,2,3.1|
0,3,8.1|
0,4,8|
1,0,4|
1,2,4.6|
1,3,5.5|
1,4,7.9|
2,0,9.6|
2,1,3|
2,3,3.6|
2,4,5.3|
3,0,8|
3,1,5.7|
3,2,4.5|
3,4,3.2|
4,0,7.2|
4,1,4.7|
4,2,7.6|
4,3,6|
];
constraint_x9_x7=[
0,1,7.2|
0,2,4.3|
0,3,6.8|
0,4,3.1|
1,0,2.4|
1,2,6.1|
1,3,7.3|
1,4,6.3|
2,0,1.9|
2,1,4.4|
2,3,1.4|
2,4,0.073|
3,0,2.1|
3,1,7.7|
3,2,8.9|
3,4,3.4|
4,0,0.075|
4,1,7.3|
4,2,8.7|
4,3,0.015|
];
constraint_x9_x8=[
0,1,0.5|
0,2,0.15|
0,3,9.7|
0,4,9.3|
1,0,3.5|
1,2,8.4|
1,3,3.6|
1,4,1.1|
2,0,0.94|
2,1,5.3|
2,3,2.5|
2,4,3.1|
3,0,5.8|
3,1,4.4|
3,2,8.2|
3,4,5.6|
4,0,0.56|
4,1,3.6|
4,2,1.7|
4,3,9.8|
];
constraint_x10_x3=[
0,1,2.2|
0,2,5.6|
0,3,0.67|
0,4,9.4|
1,0,0.83|
1,2,9.3|
1,3,4.3|
1,4,9.2|
2,0,3.3|
2,1,8.5|
2,3,5.8|
2,4,9.9|
3,0,1.3|
3,1,4.8|
3,2,1.1|
3,4,2.8|
4,0,2|
4,1,0.93|
4,2,2.9|
4,3,9.3|
];
constraint_x10_x4=[
0,1,9.6|
0,2,5.6|
0,3,6.2|
0,4,8.1|
1,0,7.7|
1,2,9.1|
1,3,6.4|
1,4,9.6|
2,0,7.2|
2,1,0.77|
2,3,5.5|
2,4,0.13|
3,0,3.9|
3,1,7|
3,2,7.9|
3,4,5.7|
4,0,0.026|
4,1,4.8|
4,2,3.6|
4,3,5.9|
];
constraint_x10_x7=[
0,1,7.3|
0,2,4.1|
0,3,4.6|
0,4,3.6|
1,0,6|
1,2,1|
1,3,0.68|
1,4,1.3|
2,0,4.2|
2,1,6.9|
2,3,0.15|
2,4,6.8|
3,0,5.6|
3,1,1.4|
3,2,9.3|
3,4,0.17|
4,0,0.098|
4,1,8.3|
4,2,9.2|
4,3,9.6|
];
constraint_x10_x8=[
0,1,2.9|
0,2,1.7|
0,3,0.14|
0,4,5.4|
1,0,0.26|
1,2,1.9|
1,3,5.2|
1,4,1.2|
2,0,3.2|
2,1,7.1|
2,3,0.66|
2,4,7.8|
3,0,7.9|
3,1,7.4|
3,2,8.2|
3,4,0.94|
4,0,1.4|
4,1,0.32|
4,2,6.6|
4,3,9.1|
];
constraint_x11_x1=[
0,1,2.5|
0,2,9.8|
0,3,3|
0,4,3.1|
1,0,1.1|
1,2,4.3|
1,3,1.9|
1,4,6.9|
2,0,7.9|
2,1,1.5|
2,3,7.5|
2,4,0.076|
3,0,1.9|
3,1,8.6|
3,2,7.3|
3,4,7.7|
4,0,1.2|
4,1,9.7|
4,2,3.6|
4,3,6.4|
];
constraint_x11_x2=[
0,1,6.8|
0,2,2.2|
0,3,0.084|
0,4,3.8|
1,0,6.4|
1,2,3.1|
1,3,1.3|
1,4,3.4|
2,0,7|
2,1,4.5|
2,3,3.2|
2,4,8.4|
3,0,0.8|
3,1,5.8|
3,2,1.9|
3,4,1.2|
4,0,1.7|
4,1,1.8|
4,2,3|
4,3,1.2|
];
constraint_x11_x5=[
0,1,2|
0,2,7.5|
0,3,1.9|
0,4,9.3|
1,0,2.1|
1,2,4.7|
1,3,4.4|
1,4,4.8|
2,0,8.4|
2,1,3.7|
2,3,2.6|
2,4,4|
3,0,4.9|
3,1,2.5|
3,2,8.9|
3,4,9.8|
4,0,7|
4,1,6.2|
4,2,5.2|
4,3,0.15|
];
constraint_x11_x7=[
0,1,1.2|
0,2,7.7|
0,3,0.78|
0,4,5.9|
1,0,9.5|
1,2,4.5|
1,3,3.7|
1,4,6.9|
2,0,1.6|
2,1,6.6|
2,3,6.6|
2,4,9.7|
3,0,5.3|
3,1,5|
3,2,3.4|
3,4,6.4|
4,0,5.1|
4,1,1.4|
4,2,0.79|
4,3,7.9|
];
constraint_x11_x10=[
0,1,0.28|
0,2,3.7|
0,3,3.8|
0,4,5.3|
1,0,2.6|
1,2,8.2|
1,3,6.2|
1,4,6|
2,0,7.7|
2,1,7.5|
2,3,2.4|
2,4,7.3|
3,0,8|
3,1,7.1|
3,2,6|
3,4,7.3|
4,0,6.4|
4,1,9.9|
4,2,1.4|
4,3,5.4|
];
constraint_x12_x1=[
0,1,6.4|
0,2,9.1|
0,3,3|
0,4,3.5|
1,0,7.5|
1,2,7.9|
1,3,3.5|
1,4,8.1|
2,0,8.3|
2,1,2.1|
2,3,7.9|
2,4,0.8|
3,0,1.8|
3,1,4.8|
3,2,5.5|
3,4,8.9|
4,0,2.9|
4,1,0.0067|
4,2,9.3|
4,3,8|
];
constraint_x12_x2=[
0,1,9.6|
0,2,3.4|
0,3,4.8|
0,4,6.3|
1,0,0.27|
1,2,9.8|
1,3,5.2|
1,4,1.7|
2,0,3.7|
2,1,6.3|
2,3,1.6|
2,4,6.5|
3,0,2.9|
3,1,3.3|
3,2,5.9|
3,4,2|
4,0,9.9|
4,1,4.1|
4,2,8.2|
4,3,7.2|
];
constraint_x12_x3=[
0,1,1.9|
0,2,1.2|
0,3,1.6|
0,4,6.8|
1,0,0.99|
1,2,0.11|
1,3,4.6|
1,4,2.6|
2,0,4|
2,1,2|
2,3,5.3|
2,4,1.8|
3,0,2|
3,1,6|
3,2,7.9|
3,4,3.1|
4,0,0.12|
4,1,3.5|
4,2,8.1|
4,3,2|
];
constraint_x12_x8=[
0,1,3.1|
0,2,6.7|
0,3,1|
0,4,3.3|
1,0,3.7|
1,2,3.1|
1,3,6.9|
1,4,6.5|
2,0,6.5|
2,1,7|
2,3,2.4|
2,4,2.9|
3,0,0.24|
3,1,8.4|
3,2,6.5|
3,4,0.91|
4,0,4.2|
4,1,3.8|
4,2,4.3|
4,3,7.4|
];
constraint_x12_x9=[
0,1,1.7|
0,2,5.8|
0,3,2.9|
0,4,0.25|
1,0,1.7|
1,2,5.3|
1,3,4.4|
1,4,6.4|
2,0,5.9|
2,1,3.7|
2,3,4.6|
2,4,4.7|
3,0,5.5|
3,1,9.5|
3,2,6.8|
3,4,6.5|
4,0,7.4|
4,1,3.2|
4,2,9.7|
4,3,9.8|
];
constraint_x13_x1=[
0,1,0.53|
0,2,1.3|
0,3,4.5|
0,4,5.1|
1,0,4.2|
1,2,9.1|
1,3,7.2|
1,4,5.4|
2,0,3.2|
2,1,2.5|
2,3,8.6|
2,4,0.031|
3,0,5.6|
3,1,4.5|
3,2,4.5|
3,4,3|
4,0,9.8|
4,1,8.9|
4,2,8.3|
4,3,8.4|
];
constraint_x13_x2=[
0,1,9.6|
0,2,10|
0,3,6.4|
0,4,4.8|
1,0,8.6|
1,2,9.9|
1,3,3.2|
1,4,9.4|
2,0,1.4|
2,1,0.93|
2,3,3.5|
2,4,5.8|
3,0,4.1|
3,1,1.8|
3,2,6.5|
3,4,4.3|
4,0,0.27|
4,1,1.2|
4,2,2.4|
4,3,1.7|
];
constraint_x13_x6=[
0,1,3.5|
0,2,2.1|
0,3,2.8|
0,4,4.7|
1,0,0.015|
1,2,1.7|
1,3,3.3|
1,4,3.4|
2,0,2.6|
2,1,6.7|
2,3,7.7|
2,4,5.9|
3,0,5.9|
3,1,7.3|
3,2,5|
3,4,9.3|
4,0,6.6|
4,1,7|
4,2,0.29|
4,3,5.6|
];
constraint_x13_x7=[
0,1,9.9|
0,2,1.3|
0,3,3.5|
0,4,5.8|
1,0,1.7|
1,2,2.4|
1,3,0.57|
1,4,4.7|
2,0,3.9|
2,1,5.8|
2,3,3.3|
2,4,8.1|
3,0,0.45|
3,1,8.5|
3,2,2.4|
3,4,1.7|
4,0,8.4|
4,1,0.9|
4,2,2.8|
4,3,4.9|
];
constraint_x13_x8=[
0,1,7.2|
0,2,3.4|
0,3,8.8|
0,4,1.2|
1,0,5.4|
1,2,5.9|
1,3,0.5|
1,4,9.7|
2,0,5.2|
2,1,2.1|
2,3,6.6|
2,4,5.1|
3,0,2.4|
3,1,4.1|
3,2,9.4|
3,4,9.7|
4,0,9.8|
4,1,3|
4,2,6.1|
4,3,4.8|
];
constraint_x13_x9=[
0,1,6.6|
0,2,9.7|
0,3,0.27|
0,4,1|
1,0,9.5|
1,2,3.9|
1,3,8.3|
1,4,6.1|
2,0,7.3|
2,1,7.2|
2,3,5.9|
2,4,1.3|
3,0,4.4|
3,1,2.6|
3,2,1.5|
3,4,7.2|
4,0,0.44|
4,1,2.2|
4,2,8.1|
4,3,3.7|
];
constraint_x13_x10=[
0,1,5.4|
0,2,7|
0,3,8.7|
0,4,4.8|
1,0,7.6|
1,2,0.71|
1,3,0.98|
1,4,8.2|
2,0,8.2|
2,1,7.9|
2,3,8.9|
2,4,9.1|
3,0,1.2|
3,1,6.8|
3,2,3.9|
3,4,6.1|
4,0,5.5|
4,1,1.8|
4,2,4.4|
4,3,8.7|
];
constraint_x13_x11=[
0,1,5.6|
0,2,1.6|
0,3,0.38|
0,4,5.8|
1,0,8.1|
1,2,4.3|
1,3,0.71|
1,4,1.4|
2,0,0.72|
2,1,6|
2,3,1.7|
2,4,2.2|
3,0,9.1|
3,1,2.7|
3,2,4|
3,4,8.1|
4,0,3|
4,1,4|
4,2,7.4|
4,3,0.53|
];
constraint_x13_x12=[
0,1,0.44|
0,2,8.1|
0,3,6.1|
0,4,2|
1,0,0.6|
1,2,9.5|
1,3,2.4|
1,4,8.1|
2,0,8.9|
2,1,3|
2,3,9.9|
2,4,7.8|
3,0,5|
3,1,3.5|
3,2,2.5|
3,4,3.7|
4,0,7.7|
4,1,8.7|
4,2,8.4|
4,3,3.5|
];
constraint_x14_x1=[
0,1,4|
0,2,7|
0,3,5.1|
0,4,4|
1,0,5.5|
1,2,8.1|
1,3,8.5|
1,4,5.2|
2,0,9.5|
2,1,3.6|
2,3,9.9|
2,4,3.6|
3,0,8.5|
3,1,5.6|
3,2,9.1|
3,4,4.4|
4,0,2.9|
4,1,5.7|
4,2,6.5|
4,3,4.6|
];
constraint_x14_x4=[
0,1,3.4|
0,2,1.6|
0,3,9|
0,4,5|
1,0,3.2|
1,2,9.5|
1,3,0.7|
1,4,7.1|
2,0,2.6|
2,1,6.4|
2,3,2.9|
2,4,1.3|
3,0,0.57|
3,1,0.81|
3,2,2.6|
3,4,6.1|
4,0,2.1|
4,1,4.8|
4,2,9.5|
4,3,8.2|
];
constraint_x14_x9=[
0,1,3.9|
0,2,8.8|
0,3,8.7|
0,4,8.2|
1,0,7.8|
1,2,7.7|
1,3,7.9|
1,4,7.5|
2,0,4.2|
2,1,4.3|
2,3,6.2|
2,4,5.7|
3,0,5.7|
3,1,2.5|
3,2,1.8|
3,4,5.3|
4,0,3.2|
4,1,2.1|
4,2,3.1|
4,3,3.6|
];
constraint_x14_x12=[
0,1,4.9|
0,2,2.1|
0,3,0.17|
0,4,5.5|
1,0,5.3|
1,2,7.3|
1,3,3.6|
1,4,10|
2,0,2.6|
2,1,9.1|
2,3,5.2|
2,4,9.9|
3,0,8.1|
3,1,1.2|
3,2,2.8|
3,4,1.9|
4,0,9.2|
4,1,8.4|
4,2,4.2|
4,3,4.6|
];
constraint_x14_x13=[
0,1,9.3|
0,2,3.7|
0,3,6.4|
0,4,9.7|
1,0,8.4|
1,2,7.2|
1,3,3.1|
1,4,9.6|
2,0,5.9|
2,1,5.2|
2,3,7.2|
2,4,9.2|
3,0,8.7|
3,1,3.3|
3,2,5.2|
3,4,2.4|
4,0,5.3|
4,1,0.89|
4,2,9.4|
4,3,9.2|
];
constraint_x15_x2=[
0,1,2.3|
0,2,9.3|
0,3,6.3|
0,4,5|
1,0,9.3|
1,2,4.6|
1,3,8|
1,4,0.97|
2,0,7.4|
2,1,2.3|
2,3,6.1|
2,4,9.6|
3,0,9.6|
3,1,6.2|
3,2,3|
3,4,0.8|
4,0,6.4|
4,1,9.5|
4,2,4.6|
4,3,6.3|
];
constraint_x15_x3=[
0,1,3.8|
0,2,8.5|
0,3,3.6|
0,4,3.6|
1,0,1.5|
1,2,3.5|
1,3,3.7|
1,4,7.7|
2,0,9.1|
2,1,7.6|
2,3,5.3|
2,4,6.6|
3,0,3|
3,1,9.2|
3,2,2.2|
3,4,1.8|
4,0,9.2|
4,1,6.8|
4,2,9.6|
4,3,7.6|
];
constraint_x15_x4=[
0,1,0.15|
0,2,7.3|
0,3,0.16|
0,4,4.4|
1,0,7.7|
1,2,3.6|
1,3,3.1|
1,4,6.9|
2,0,0.32|
2,1,8.7|
2,3,2.3|
2,4,7|
3,0,9.1|
3,1,8.6|
3,2,3.8|
3,4,8.8|
4,0,8.4|
4,1,1.3|
4,2,3.2|
4,3,7.6|
];
constraint_x15_x6=[
0,1,5.8|
0,2,4.9|
0,3,7.1|
0,4,3.6|
1,0,0.23|
1,2,3.7|
1,3,6|
1,4,7|
2,0,0.81|
2,1,9.8|
2,3,9.2|
2,4,5.9|
3,0,2.6|
3,1,9.7|
3,2,7.3|
3,4,5.4|
4,0,1.1|
4,1,2.1|
4,2,3.3|
4,3,4.3|
];
constraint_x15_x7=[
0,1,5.4|
0,2,1.9|
0,3,3.2|
0,4,0.3|
1,0,5|
1,2,5.1|
1,3,0.17|
1,4,7.5|
2,0,8.1|
2,1,5.6|
2,3,4.9|
2,4,3.7|
3,0,5.8|
3,1,7.2|
3,2,1.5|
3,4,0.99|
4,0,7.7|
4,1,2.2|
4,2,1.5|
4,3,6.6|
];
constraint_x15_x10=[
0,1,5.8|
0,2,9.4|
0,3,9.4|
0,4,3.7|
1,0,7.6|
1,2,7.5|
1,3,1.2|
1,4,5.5|
2,0,6.8|
2,1,3|
2,3,3.8|
2,4,7.3|
3,0,9.8|
3,1,0.65|
3,2,0.2|
3,4,7.7|
4,0,5.4|
4,1,0.092|
4,2,3.6|
4,3,9.7|
];
constraint_x15_x13=[
0,1,1|
0,2,2.1|
0,3,5.1|
0,4,6.7|
1,0,3.5|
1,2,1.5|
1,3,0.41|
1,4,0.69|
2,0,0.084|
2,1,0.26|
2,3,3.6|
2,4,5.2|
3,0,5.5|
3,1,2.4|
3,2,9.8|
3,4,0.82|
4,0,3.4|
4,1,4.1|
4,2,3.6|
4,3,3.7|
];
constraint_x15_x14=[
0,1,4.7|
0,2,9.6|
0,3,4.9|
0,4,1.9|
1,0,1.3|
1,2,8.8|
1,3,9.8|
1,4,2.8|
2,0,6|
2,1,9.5|
2,3,2|
2,4,7.4|
3,0,6|
3,1,1.9|
3,2,9|
3,4,2.2|
4,0,2.5|
4,1,7.5|
4,2,7.2|
4,3,9.5|
];
constraint_x1_y1=[
0,0,2.7|
0,1,3.2|
0,2,4.5|
0,3,3.1|
0,4,9|
1,0,8.8|
1,1,4.6|
1,2,4.8|
1,3,9|
1,4,1.5|
2,0,7.7|
2,1,1.5|
2,2,0.59|
2,3,6.1|
2,4,0.46|
3,0,3.2|
3,1,0.62|
3,2,5.2|
3,3,6|
3,4,9.5|
4,0,0.84|
4,1,3.2|
4,2,1.8|
4,3,2.5|
4,4,7.7|
];
constraint_x2_y2=[
0,0,2.9|
0,1,3.7|
0,2,1.5|
0,3,8|
0,4,8.9|
1,0,6.7|
1,1,8.1|
1,2,0.52|
1,3,9|
1,4,3.8|
2,0,9.3|
2,1,1.3|
2,2,5|
2,3,4.8|
2,4,7|
3,0,2.9|
3,1,3.9|
3,2,7.3|
3,3,2.4|
3,4,5.5|
4,0,3.2|
4,1,7.7|
4,2,6.6|
4,3,9.2|
4,4,5|
];
constraint_x3_y3=[
0,0,4|
0,1,5.3|
0,2,6.7|
0,3,8.4|
0,4,5.5|
1,0,4|
1,1,3.5|
1,2,1.3|
1,3,1.9|
1,4,7.7|
2,0,6.8|
2,1,5.5|
2,2,8.4|
2,3,4.1|
2,4,3.7|
3,0,6.7|
3,1,6.7|
3,2,2.8|
3,3,4.9|
3,4,9.4|
4,0,4.3|
4,1,5.8|
4,2,0.0061|
4,3,5.4|
4,4,9.6|
];
initial_distribution_y1=[0.48,0.11,0.38,0.0096,0.022];
initial_distribution_y2=[0.26,0.17,0.24,0.3,0.037];
initial_distribution_y3=[0.16,0.36,0.16,0.25,0.069];
transition_y1=[
0.33,0.3,0.22,0.1,0.046|
0.081,0.21,0.35,0.011,0.35|
0.25,0.22,0.2,0.13,0.19|
0.038,0.19,0.56,0.055,0.16|
0.25,0.1,0.25,0.25,0.15|
];
transition_y2=[
0.24,0.38,0.16,0.021,0.19|
0.34,0.12,0.034,0.43,0.078|
0.17,0.21,0.21,0.068,0.35|
0.19,0.36,0.24,0.2,0.017|
0.29,0.34,0.032,0.005,0.33|
];
transition_y3=[
0.045,0.068,0.35,0.41,0.13|
0.25,0.0097,0.28,0.2,0.27|
0.17,0.36,0.073,0.19,0.21|
0.11,0.31,0.18,0.21,0.18|
0.02,0.42,0.09,0.21,0.25|
];
